(set-info :smt-lib-version 2.6)
(set-logic QF_FP)
(set-info :source |Random FP created by PyMPF|)
(set-info :license |https://www.gnu.org/licenses/gpl-3.0.html|)
(set-info :category random)
(set-info :status unsat)
(declare-const x Float32)
(assert (= x ((_ to_fp 8 24) #x007F535E)))
;; x should be Float32(0x007F535E [Rational(4172207, 356811923176489970264571492362373784095686656), 0.000000])

(declare-const y Float32)
(assert (= y ((_ to_fp 8 24) #x807FFFFF)))
;; y should be Float32(0x807FFFFF [Rational(-8388607, 713623846352979940529142984724747568191373312), -0.000000])

(declare-const z Float32)
(assert (= z (fp #b0 #b11100000 #b00000111101011011100001)))
;; z should be Float32(0x7003D6E1 [Rational(163209235777809521266026086400), 163209235777809521266026086400.000000])

(declare-const result Float32)
(assert (= result (fp.fma RTP x y z)))
(assert (not (= result ((_ to_fp 8 24) #x7003D6E1))))
(check-sat)
(exit)
